NAME: instance_776
TYPE: TSP
DIMENSION: 20
EDGE_WEIGHT_TYPE: EUC_2D
NODE_COORD_SECTION
0 6.39 53.32
1 85.84 85.42
2 71.10 22.71
3 80.33 30.49
4 70.60 54.90
5 77.79 17.94
6 62.40 28.67
7 27.87 7.97
8 95.22 96.43
9 47.30 37.27
10 25.99 82.91
11 72.66 21.18
12 24.25 12.10
13 5.49 88.40
14 77.94 45.31
15 67.77 39.68
16 99.83 27.44
17 15.66 42.28
18 21.24 32.96
19 40.05 78.49
EOF
